MARKOV
196
2 2 2 2 2 2 2 2 2 2 2 2 2 2 2 2 2 2 2 2 2 2 2 2 2 2 2 2 2 2 2 2 2 2 2 2 2 2 2 2 2 2 2 2 2 2 2 2 2 2 2 2 2 2 2 2 2 2 2 2 2 2 2 2 2 2 2 2 2 2 2 2 2 2 2 2 2 2 2 2 2 2 2 2 2 2 2 2 2 2 2 2 2 2 2 2 2 2 2 2 2 2 2 2 2 2 2 2 2 2 2 2 2 2 2 2 2 2 2 2 2 2 2 2 2 2 2 2 2 2 2 2 2 2 2 2 2 2 2 2 2 2 2 2 2 2 2 2 2 2 2 2 2 2 2 2 2 2 2 2 2 2 2 2 2 2 2 2 2 2 2 2 2 2 2 2 2 2 2 2 2 2 2 2 2 2 2 2 2 2 2 2 2 2 2 2
514
5 195 192 190 189 174
5 194 191 190 175 174
5 193 189 177 175 174
5 192 187 179 176 175
4 191 186 177 176
5 190 185 177 176 175
3 189 184 175
2 188 183
2 188 182
2 187 180
2 186 179
2 185 178
2 184 176
2 183 174
2 183 175
2 183 176
2 183 177
2 183 178
2 183 179
2 183 180
2 183 181
2 182 173
9 181 180 179 178 177 176 175 174 183
5 181 172 151 102 33
5 180 171 150 101 29
5 179 170 149 100 25
5 178 169 148 99 21
5 177 168 146 98 17
5 176 167 144 97 13
5 175 166 142 95 9
5 174 165 140 93 5
5 173 164 138 91 1
3 172 162 35
3 171 162 32
3 170 162 28
3 169 162 24
3 168 162 20
3 167 162 16
3 166 162 12
3 165 162 8
3 164 162 4
2 163 161
2 162 161
2 161 152
2 161 153
2 161 154
2 161 155
2 161 156
2 161 157
2 161 158
2 161 159
2 161 160
10 160 159 158 157 156 155 154 153 152 161
3 160 147 130
3 159 145 129
3 158 143 128
3 157 141 127
3 156 139 126
3 155 137 125
3 154 136 124
3 153 135 123
3 152 134 122
3 151 132 34
3 150 132 30
3 149 132 26
3 148 132 22
3 147 131 112
3 147 112 131
3 146 132 18
3 145 131 111
3 145 111 131
3 144 132 14
3 143 131 110
3 143 110 131
3 142 132 10
3 141 131 109
3 141 109 131
3 140 132 6
3 139 131 108
3 139 108 131
3 138 132 2
3 137 131 107
3 137 107 131
3 136 131 106
3 136 106 131
3 135 131 105
3 135 105 131
3 134 131 103
3 134 103 131
2 133 121
2 132 121
2 131 121
3 131 103 134
3 131 105 135
3 131 106 136
3 131 107 137
3 131 108 139
3 131 109 141
3 131 110 143
3 131 111 145
3 131 112 147
2 130 120
2 129 119
2 128 118
2 127 117
2 126 116
2 125 115
2 124 114
2 123 113
2 122 104
2 121 103
2 121 105
2 121 106
2 121 107
2 121 108
2 121 109
2 121 110
2 121 111
2 121 112
3 120 96 80
3 119 94 78
3 118 92 76
3 117 90 74
3 116 89 72
3 115 88 70
3 114 87 68
3 113 86 66
10 112 111 110 109 108 107 106 105 103 121
3 112 96 79
3 112 131 147
3 111 94 77
3 111 131 145
3 110 92 75
3 110 131 143
3 109 90 73
3 109 131 141
3 108 89 71
3 108 131 139
3 107 88 69
3 107 131 137
3 106 87 67
3 106 131 136
3 105 86 65
3 105 131 135
3 104 85 56
3 103 85 55
3 103 131 134
3 102 83 31
3 101 83 27
3 100 83 23
3 99 83 19
3 98 83 15
3 97 83 11
3 96 82 64
3 96 64 82
3 95 83 7
3 94 82 63
3 94 63 82
3 93 83 3
3 92 82 62
3 92 62 82
3 91 83 0
3 90 82 61
3 90 61 82
3 89 82 60
3 89 60 82
3 88 82 59
3 88 59 82
3 87 82 58
3 87 58 82
3 86 82 57
3 86 57 82
3 85 82 54
3 85 54 82
2 84 81
2 83 81
2 82 81
3 82 54 85
3 82 57 86
3 82 58 87
3 82 59 88
3 82 60 89
3 82 61 90
3 82 62 92
3 82 63 94
3 82 64 96
2 81 54
2 81 57
2 81 58
2 81 59
2 81 60
2 81 61
2 81 62
2 81 63
2 81 64
2 80 53
2 80 35
2 79 53
2 79 34
2 78 51
2 78 32
2 77 51
2 77 30
2 76 49
2 76 28
2 75 49
2 75 26
2 74 47
2 74 24
2 73 47
2 73 22
2 72 45
2 72 20
2 71 45
2 71 18
2 70 43
2 70 16
2 69 43
2 69 14
2 68 41
2 68 12
2 67 41
2 67 10
2 66 39
2 66 8
2 65 39
2 65 6
10 64 63 62 61 60 59 58 57 54 81
3 64 52 33
3 64 82 96
3 63 50 29
3 63 82 94
3 62 48 25
3 62 82 92
3 61 46 21
3 61 82 90
3 60 44 17
3 60 82 89
3 59 42 13
3 59 82 88
3 58 40 9
3 58 82 87
3 57 38 5
3 57 82 86
2 56 37
2 56 4
2 55 37
2 55 2
3 54 36 1
3 54 82 85
2 53 33
2 52 31
2 51 29
2 50 27
2 49 25
2 48 23
2 47 21
2 46 19
2 45 17
2 44 15
2 43 13
2 42 11
2 41 9
2 40 7
2 39 5
2 38 3
2 37 1
2 36 0
2 0 36
2 0 91
2 1 37
2 1 54
2 1 173
3 2 37 55
2 2 138
2 3 38
2 3 93
3 4 37 56
2 4 164
2 5 39
2 5 57
2 5 174
3 6 39 65
2 6 140
2 7 40
2 7 95
3 8 39 66
2 8 165
2 9 41
2 9 58
2 9 175
3 10 41 67
2 10 142
2 11 42
2 11 97
3 12 41 68
2 12 166
2 13 43
2 13 59
2 13 176
3 14 43 69
2 14 144
2 15 44
2 15 98
3 16 43 70
2 16 167
2 17 45
2 17 60
2 17 177
3 18 45 71
2 18 146
2 19 46
2 19 99
3 20 45 72
2 20 168
2 21 47
2 21 61
2 21 178
3 22 47 73
2 22 148
2 23 48
2 23 100
3 24 47 74
2 24 169
2 25 49
2 25 62
2 25 179
3 26 49 75
2 26 149
2 27 50
2 27 101
3 28 49 76
2 28 170
2 29 51
2 29 63
2 29 180
3 30 51 77
2 30 150
2 31 52
2 31 102
3 32 51 78
2 32 171
2 33 53
2 33 64
2 33 181
3 34 53 79
2 34 151
3 35 53 80
2 35 172
2 36 54
2 38 57
2 40 58
2 42 59
2 44 60
2 46 61
2 48 62
2 50 63
2 52 64
2 55 103
2 56 104
2 65 105
2 66 113
2 67 106
2 68 114
2 69 107
2 70 115
2 71 108
2 72 116
2 73 109
2 74 117
2 75 110
2 76 118
2 77 111
2 78 119
2 79 112
2 80 120
2 81 82
2 81 83
2 81 84
2 83 91
2 83 93
2 83 95
2 83 97
2 83 98
2 83 99
2 83 100
2 83 101
2 83 102
2 85 103
2 85 104
2 86 105
2 86 113
2 87 106
2 87 114
2 88 107
2 88 115
2 89 108
2 89 116
2 90 109
2 90 117
2 91 173
2 92 110
2 92 118
2 93 174
2 94 111
2 94 119
2 95 175
2 96 112
2 96 120
2 97 176
2 98 177
2 99 178
2 100 179
2 101 180
2 102 181
2 104 122
2 113 123
2 114 124
2 115 125
2 116 126
2 117 127
2 118 128
2 119 129
2 120 130
2 121 131
2 121 132
2 121 133
2 122 152
2 123 153
2 124 154
2 125 155
2 126 156
2 127 157
2 128 158
2 129 159
2 130 160
2 132 138
2 132 140
2 132 142
2 132 144
2 132 146
2 132 148
2 132 149
2 132 150
2 132 151
2 134 152
2 135 153
2 136 154
2 137 155
2 138 173
2 139 156
2 140 174
2 141 157
2 142 175
2 143 158
2 144 176
2 145 159
2 146 177
2 147 160
2 148 178
2 149 179
2 150 180
2 151 181
2 161 162
2 161 163
2 162 164
2 162 165
2 162 166
2 162 167
2 162 168
2 162 169
2 162 170
2 162 171
2 162 172
2 164 173
2 165 174
2 166 175
2 167 176
2 168 177
2 169 178
2 170 179
2 171 180
2 172 181
2 173 182
2 174 193
2 174 194
2 174 195
2 175 189
2 175 190
2 175 192
2 175 193
2 175 194
2 176 184
2 176 190
2 176 191
2 176 192
2 177 190
2 177 191
2 177 193
2 178 185
2 179 186
2 179 192
2 180 187
3 182 183 188
2 184 189
2 185 190
2 186 191
2 187 192
2 189 193
2 189 195
2 190 194
2 190 195
2 191 194
2 192 195
32
1 1 1 1 1 1 1 1 1 1 1 1 1 1 1 1 1 1 1 1 1 1 1 1 1 1 1 1 1 1 1 0
32
1 1 1 1 1 1 1 1 1 1 1 1 1 1 1 1 1 1 1 1 1 1 1 1 1 1 1 1 1 1 1 0
32
1 1 1 1 1 1 1 1 1 1 1 1 1 1 1 1 1 1 1 1 1 1 1 1 1 1 1 1 1 1 1 0
32
1 1 1 1 1 1 1 1 1 1 1 1 1 1 1 1 1 1 1 1 1 1 1 1 1 1 1 1 1 1 1 0
16
1 1 1 1 1 1 1 1 1 1 1 1 1 1 1 0
32
1 1 1 1 1 1 1 1 1 1 1 1 1 1 1 1 1 1 1 1 1 1 1 1 1 1 1 1 1 1 1 0
8
1 1 1 1 1 1 1 0
4
1 1 1 0
4
1 1 1 0
4
1 1 1 0
4
1 1 1 0
4
1 1 1 0
4
1 1 1 0
4
1 1 0 1
4
1 1 0 1
4
1 1 0 1
4
1 1 0 1
4
1 1 0 1
4
1 1 0 1
4
1 1 0 1
4
1 1 0 1
4
1 1 1 0
512
1 1 1 1 1 1 1 1 1 1 1 1 1 1 1 1 1 1 1 1 1 1 1 1 1 1 1 1 1 1 1 1 1 1 1 1 1 1 1 1 1 1 1 1 1 1 1 1 1 1 1 1 1 1 1 1 1 1 1 1 1 1 1 1 1 1 1 1 1 1 1 1 1 1 1 1 1 1 1 1 1 1 1 1 1 1 1 1 1 1 1 1 1 1 1 1 1 1 1 1 1 1 1 1 1 1 1 1 1 1 1 1 1 1 1 1 1 1 1 1 1 1 1 1 1 1 1 1 1 1 1 1 1 1 1 1 1 1 1 1 1 1 1 1 1 1 1 1 1 1 1 1 1 1 1 1 1 1 1 1 1 1 1 1 1 1 1 1 1 1 1 1 1 1 1 1 1 1 1 1 1 1 1 1 1 1 1 1 1 1 1 1 1 1 1 1 1 1 1 1 1 1 1 1 1 1 1 1 1 1 1 1 1 1 1 1 1 1 1 1 1 1 1 1 1 1 1 1 1 1 1 1 1 1 1 1 1 1 1 1 1 1 1 1 1 1 1 1 1 1 1 1 1 1 1 1 1 1 1 1 1 1 1 1 1 1 1 1 1 1 1 1 1 1 1 1 1 1 1 1 1 1 1 1 1 1 1 1 1 1 1 1 1 1 1 1 1 1 1 1 1 1 1 1 1 1 1 1 1 1 1 1 1 1 1 1 1 1 1 1 1 1 1 1 1 1 1 1 1 1 1 1 1 1 1 1 1 1 1 1 1 1 1 1 1 1 1 1 1 1 1 1 1 1 1 1 1 1 1 1 1 1 1 1 1 1 1 1 1 1 1 1 1 1 1 1 1 1 1 1 1 1 1 1 1 1 1 1 1 1 1 1 1 1 1 1 1 1 1 1 1 1 1 1 1 1 1 1 1 1 1 1 1 1 1 1 1 1 1 1 1 1 1 1 1 1 1 1 1 1 1 1 1 1 1 1 1 1 1 1 1 1 1 1 1 1 1 1 1 1 1 1 1 1 1 1 1 1 1 1 1 1 1 1 1 1 1 1 1 1 1 1 1 1 1 1 1 1 1 1 1 1 1 1 1 1 1 1 1 1 1 1 1 1 1 1 1 1 1 1 1 1 1 1 1 1 1 1 1 1 0 1
32
1 1 1 1 1 1 1 1 1 1 1 1 1 1 1 1 1 1 1 1 1 1 1 1 1 1 1 1 1 1 1 0
32
1 1 1 1 1 1 1 1 1 1 1 1 1 1 1 1 1 1 1 1 1 1 1 1 1 1 1 1 1 1 1 0
32
1 1 1 1 1 1 1 1 1 1 1 1 1 1 1 1 1 1 1 1 1 1 1 1 1 1 1 1 1 1 1 0
32
1 1 1 1 1 1 1 1 1 1 1 1 1 1 1 1 1 1 1 1 1 1 1 1 1 1 1 1 1 1 1 0
32
1 1 1 1 1 1 1 1 1 1 1 1 1 1 1 1 1 1 1 1 1 1 1 1 1 1 1 1 1 1 1 0
32
1 1 1 1 1 1 1 1 1 1 1 1 1 1 1 1 1 1 1 1 1 1 1 1 1 1 1 1 1 1 1 0
32
1 1 1 1 1 1 1 1 1 1 1 1 1 1 1 1 1 1 1 1 1 1 1 1 1 1 1 1 1 1 1 0
32
1 1 1 1 1 1 1 1 1 1 1 1 1 1 1 1 1 1 1 1 1 1 1 1 1 1 1 1 1 1 1 0
32
1 1 1 1 1 1 1 1 1 1 1 1 1 1 1 1 1 1 1 1 1 1 1 1 1 1 1 1 1 1 1 0
8
1 1 1 1 1 1 1 0
8
1 1 1 1 1 1 1 0
8
1 1 1 1 1 1 1 0
8
1 1 1 1 1 1 1 0
8
1 1 1 1 1 1 1 0
8
1 1 1 1 1 1 1 0
8
1 1 1 1 1 1 1 0
8
1 1 1 1 1 1 1 0
8
1 1 1 1 1 1 1 0
4
1 1 1 0
4
1 1 1 0
4
1 1 0 1
4
1 1 0 1
4
1 1 0 1
4
1 1 0 1
4
1 1 0 1
4
1 1 0 1
4
1 1 0 1
4
1 1 0 1
4
1 1 0 1
1024
1 1 1 1 1 1 1 1 1 1 1 1 1 1 1 1 1 1 1 1 1 1 1 1 1 1 1 1 1 1 1 1 1 1 1 1 1 1 1 1 1 1 1 1 1 1 1 1 1 1 1 1 1 1 1 1 1 1 1 1 1 1 1 1 1 1 1 1 1 1 1 1 1 1 1 1 1 1 1 1 1 1 1 1 1 1 1 1 1 1 1 1 1 1 1 1 1 1 1 1 1 1 1 1 1 1 1 1 1 1 1 1 1 1 1 1 1 1 1 1 1 1 1 1 1 1 1 1 1 1 1 1 1 1 1 1 1 1 1 1 1 1 1 1 1 1 1 1 1 1 1 1 1 1 1 1 1 1 1 1 1 1 1 1 1 1 1 1 1 1 1 1 1 1 1 1 1 1 1 1 1 1 1 1 1 1 1 1 1 1 1 1 1 1 1 1 1 1 1 1 1 1 1 1 1 1 1 1 1 1 1 1 1 1 1 1 1 1 1 1 1 1 1 1 1 1 1 1 1 1 1 1 1 1 1 1 1 1 1 1 1 1 1 1 1 1 1 1 1 1 1 1 1 1 1 1 1 1 1 1 1 1 1 1 1 1 1 1 1 1 1 1 1 1 1 1 1 1 1 1 1 1 1 1 1 1 1 1 1 1 1 1 1 1 1 1 1 1 1 1 1 1 1 1 1 1 1 1 1 1 1 1 1 1 1 1 1 1 1 1 1 1 1 1 1 1 1 1 1 1 1 1 1 1 1 1 1 1 1 1 1 1 1 1 1 1 1 1 1 1 1 1 1 1 1 1 1 1 1 1 1 1 1 1 1 1 1 1 1 1 1 1 1 1 1 1 1 1 1 1 1 1 1 1 1 1 1 1 1 1 1 1 1 1 1 1 1 1 1 1 1 1 1 1 1 1 1 1 1 1 1 1 1 1 1 1 1 1 1 1 1 1 1 1 1 1 1 1 1 1 1 1 1 1 1 1 1 1 1 1 1 1 1 1 1 1 1 1 1 1 1 1 1 1 1 1 1 1 1 1 1 1 1 1 1 1 1 1 1 1 1 1 1 1 1 1 1 1 1 1 1 1 1 1 1 1 1 1 1 1 1 1 1 1 1 1 1 1 1 1 1 1 1 1 1 1 1 1 1 1 1 1 1 1 1 1 1 1 1 1 1 1 1 1 1 1 1 1 1 1 1 1 1 1 1 1 1 1 1 1 1 1 1 1 1 1 1 1 1 1 1 1 1 1 1 1 1 1 1 1 1 1 1 1 1 1 1 1 1 1 1 1 1 1 1 1 1 1 1 1 1 1 1 1 1 1 1 1 1 1 1 1 1 1 1 1 1 1 1 1 1 1 1 1 1 1 1 1 1 1 1 1 1 1 1 1 1 1 1 1 1 1 1 1 1 1 1 1 1 1 1 1 1 1 1 1 1 1 1 1 1 1 1 1 1 1 1 1 1 1 1 1 1 1 1 1 1 1 1 1 1 1 1 1 1 1 1 1 1 1 1 1 1 1 1 1 1 1 1 1 1 1 1 1 1 1 1 1 1 1 1 1 1 1 1 1 1 1 1 1 1 1 1 1 1 1 1 1 1 1 1 1 1 1 1 1 1 1 1 1 1 1 1 1 1 1 1 1 1 1 1 1 1 1 1 1 1 1 1 1 1 1 1 1 1 1 1 1 1 1 1 1 1 1 1 1 1 1 1 1 1 1 1 1 1 1 1 1 1 1 1 1 1 1 1 1 1 1 1 1 1 1 1 1 1 1 1 1 1 1 1 1 1 1 1 1 1 1 1 1 1 1 1 1 1 1 1 1 1 1 1 1 1 1 1 1 1 1 1 1 1 1 1 1 1 1 1 1 1 1 1 1 1 1 1 1 1 1 1 1 1 1 1 1 1 1 1 1 1 1 1 1 1 1 1 1 1 1 1 1 1 1 1 1 1 1 1 1 1 1 1 1 1 1 1 1 1 1 1 1 1 1 1 1 1 1 1 1 1 1 1 1 1 1 1 1 1 1 1 1 1 1 1 1 1 1 1 1 1 1 1 1 1 1 1 1 1 1 1 1 1 1 1 1 1 1 1 1 1 1 1 1 1 1 1 1 1 1 1 1 1 1 1 1 1 1 1 1 1 1 1 1 1 1 1 1 1 1 1 1 1 1 1 1 1 1 1 1 1 1 1 1 1 1 1 1 1 1 1 1 1 1 1 1 1 1 1 1 1 1 1 1 1 1 1 1 1 1 1 1 1 1 1 1 1 1 1 1 1 1 1 1 1 1 1 1 1 1 1 1 1 1 0 1
8
1 1 1 1 1 1 1 0
8
1 1 1 1 1 1 1 0
8
1 1 1 1 1 1 1 0
8
1 1 1 1 1 1 1 0
8
1 1 1 1 1 1 1 0
8
1 1 1 1 1 1 1 0
8
1 1 1 1 1 1 1 0
8
1 1 1 1 1 1 1 0
8
1 1 1 1 1 1 1 0
8
1 1 1 1 1 1 1 0
8
1 1 1 1 1 1 1 0
8
1 1 1 1 1 1 1 0
8
1 1 1 1 1 1 1 0
8
1 1 1 1 1 1 1 0
8
1 1 1 1 0 1 1 1
8
1 1 1 1 1 1 1 0
8
1 1 1 1 1 1 1 0
8
1 1 1 1 0 1 1 1
8
1 1 1 1 1 1 1 0
8
1 1 1 1 1 1 1 0
8
1 1 1 1 0 1 1 1
8
1 1 1 1 1 1 1 0
8
1 1 1 1 1 1 1 0
8
1 1 1 1 0 1 1 1
8
1 1 1 1 1 1 1 0
8
1 1 1 1 1 1 1 0
8
1 1 1 1 0 1 1 1
8
1 1 1 1 1 1 1 0
8
1 1 1 1 1 1 1 0
8
1 1 1 1 0 1 1 1
8
1 1 1 1 1 1 1 0
8
1 1 1 1 0 1 1 1
8
1 1 1 1 1 1 1 0
8
1 1 1 1 0 1 1 1
8
1 1 1 1 1 1 1 0
8
1 1 1 1 0 1 1 1
4
1 1 1 0
4
1 1 1 0
4
1 1 1 0
8
1 1 1 1 0 1 1 1
8
1 1 1 1 0 1 1 1
8
1 1 1 1 0 1 1 1
8
1 1 1 1 0 1 1 1
8
1 1 1 1 0 1 1 1
8
1 1 1 1 0 1 1 1
8
1 1 1 1 0 1 1 1
8
1 1 1 1 0 1 1 1
8
1 1 1 1 0 1 1 1
4
1 1 1 0
4
1 1 1 0
4
1 1 1 0
4
1 1 1 0
4
1 1 1 0
4
1 1 1 0
4
1 1 1 0
4
1 1 1 0
4
1 1 1 0
4
1 1 0 1
4
1 1 0 1
4
1 1 0 1
4
1 1 0 1
4
1 1 0 1
4
1 1 0 1
4
1 1 0 1
4
1 1 0 1
4
1 1 0 1
8
1 1 1 1 1 1 1 0
8
1 1 1 1 1 1 1 0
8
1 1 1 1 1 1 1 0
8
1 1 1 1 1 1 1 0
8
1 1 1 1 1 1 1 0
8
1 1 1 1 1 1 1 0
8
1 1 1 1 1 1 1 0
8
1 1 1 1 1 1 1 0
1024
1 1 1 1 1 1 1 1 1 1 1 1 1 1 1 1 1 1 1 1 1 1 1 1 1 1 1 1 1 1 1 1 1 1 1 1 1 1 1 1 1 1 1 1 1 1 1 1 1 1 1 1 1 1 1 1 1 1 1 1 1 1 1 1 1 1 1 1 1 1 1 1 1 1 1 1 1 1 1 1 1 1 1 1 1 1 1 1 1 1 1 1 1 1 1 1 1 1 1 1 1 1 1 1 1 1 1 1 1 1 1 1 1 1 1 1 1 1 1 1 1 1 1 1 1 1 1 1 1 1 1 1 1 1 1 1 1 1 1 1 1 1 1 1 1 1 1 1 1 1 1 1 1 1 1 1 1 1 1 1 1 1 1 1 1 1 1 1 1 1 1 1 1 1 1 1 1 1 1 1 1 1 1 1 1 1 1 1 1 1 1 1 1 1 1 1 1 1 1 1 1 1 1 1 1 1 1 1 1 1 1 1 1 1 1 1 1 1 1 1 1 1 1 1 1 1 1 1 1 1 1 1 1 1 1 1 1 1 1 1 1 1 1 1 1 1 1 1 1 1 1 1 1 1 1 1 1 1 1 1 1 1 1 1 1 1 1 1 1 1 1 1 1 1 1 1 1 1 1 1 1 1 1 1 1 1 1 1 1 1 1 1 1 1 1 1 1 1 1 1 1 1 1 1 1 1 1 1 1 1 1 1 1 1 1 1 1 1 1 1 1 1 1 1 1 1 1 1 1 1 1 1 1 1 1 1 1 1 1 1 1 1 1 1 1 1 1 1 1 1 1 1 1 1 1 1 1 1 1 1 1 1 1 1 1 1 1 1 1 1 1 1 1 1 1 1 1 1 1 1 1 1 1 1 1 1 1 1 1 1 1 1 1 1 1 1 1 1 1 1 1 1 1 1 1 1 1 1 1 1 1 1 1 1 1 1 1 1 1 1 1 1 1 1 1 1 1 1 1 1 1 1 1 1 1 1 1 1 1 1 1 1 1 1 1 1 1 1 1 1 1 1 1 1 1 1 1 1 1 1 1 1 1 1 1 1 1 1 1 1 1 1 1 1 1 1 1 1 1 1 1 1 1 1 1 1 1 1 1 1 1 1 1 1 1 1 1 1 1 1 1 1 1 1 1 1 1 1 1 1 1 1 1 1 1 1 1 1 1 1 1 1 1 1 1 1 1 1 1 1 1 1 1 1 1 1 1 1 1 1 1 1 1 1 1 1 1 1 1 1 1 1 1 1 1 1 1 1 1 1 1 1 1 1 1 1 1 1 1 1 1 1 1 1 1 1 1 1 1 1 1 1 1 1 1 1 1 1 1 1 1 1 1 1 1 1 1 1 1 1 1 1 1 1 1 1 1 1 1 1 1 1 1 1 1 1 1 1 1 1 1 1 1 1 1 1 1 1 1 1 1 1 1 1 1 1 1 1 1 1 1 1 1 1 1 1 1 1 1 1 1 1 1 1 1 1 1 1 1 1 1 1 1 1 1 1 1 1 1 1 1 1 1 1 1 1 1 1 1 1 1 1 1 1 1 1 1 1 1 1 1 1 1 1 1 1 1 1 1 1 1 1 1 1 1 1 1 1 1 1 1 1 1 1 1 1 1 1 1 1 1 1 1 1 1 1 1 1 1 1 1 1 1 1 1 1 1 1 1 1 1 1 1 1 1 1 1 1 1 1 1 1 1 1 1 1 1 1 1 1 1 1 1 1 1 1 1 1 1 1 1 1 1 1 1 1 1 1 1 1 1 1 1 1 1 1 1 1 1 1 1 1 1 1 1 1 1 1 1 1 1 1 1 1 1 1 1 1 1 1 1 1 1 1 1 1 1 1 1 1 1 1 1 1 1 1 1 1 1 1 1 1 1 1 1 1 1 1 1 1 1 1 1 1 1 1 1 1 1 1 1 1 1 1 1 1 1 1 1 1 1 1 1 1 1 1 1 1 1 1 1 1 1 1 1 1 1 1 1 1 1 1 1 1 1 1 1 1 1 1 1 1 1 1 1 1 1 1 1 1 1 1 1 1 1 1 1 1 1 1 1 1 1 1 1 1 1 1 1 1 1 1 1 1 1 1 1 1 1 1 1 1 1 1 1 1 1 1 1 1 1 1 1 1 1 1 1 1 1 1 1 1 1 1 1 1 1 1 1 1 1 1 1 1 1 1 1 1 1 1 1 1 1 1 1 1 1 1 1 1 1 1 1 1 1 1 1 1 1 1 1 1 1 1 1 1 1 1 1 1 1 1 1 1 1 1 1 1 1 1 1 1 1 1 1 1 1 1 1 1 1 1 0 1
8
1 1 1 1 1 1 1 0
8
1 1 1 1 0 1 1 1
8
1 1 1 1 1 1 1 0
8
1 1 1 1 0 1 1 1
8
1 1 1 1 1 1 1 0
8
1 1 1 1 0 1 1 1
8
1 1 1 1 1 1 1 0
8
1 1 1 1 0 1 1 1
8
1 1 1 1 1 1 1 0
8
1 1 1 1 0 1 1 1
8
1 1 1 1 1 1 1 0
8
1 1 1 1 0 1 1 1
8
1 1 1 1 1 1 1 0
8
1 1 1 1 0 1 1 1
8
1 1 1 1 1 1 1 0
8
1 1 1 1 0 1 1 1
8
1 1 1 1 1 1 1 0
8
1 1 1 1 1 1 1 0
8
1 1 1 1 0 1 1 1
8
1 1 1 1 1 1 1 0
8
1 1 1 1 1 1 1 0
8
1 1 1 1 1 1 1 0
8
1 1 1 1 1 1 1 0
8
1 1 1 1 1 1 1 0
8
1 1 1 1 1 1 1 0
8
1 1 1 1 1 1 1 0
8
1 1 1 1 0 1 1 1
8
1 1 1 1 1 1 1 0
8
1 1 1 1 1 1 1 0
8
1 1 1 1 0 1 1 1
8
1 1 1 1 1 1 1 0
8
1 1 1 1 1 1 1 0
8
1 1 1 1 0 1 1 1
8
1 1 1 1 1 1 1 0
8
1 1 1 1 1 1 1 0
8
1 1 1 1 0 1 1 1
8
1 1 1 1 1 1 1 0
8
1 1 1 1 0 1 1 1
8
1 1 1 1 1 1 1 0
8
1 1 1 1 0 1 1 1
8
1 1 1 1 1 1 1 0
8
1 1 1 1 0 1 1 1
8
1 1 1 1 1 1 1 0
8
1 1 1 1 0 1 1 1
8
1 1 1 1 1 1 1 0
8
1 1 1 1 0 1 1 1
4
1 1 1 0
4
1 1 1 0
4
1 1 1 0
8
1 1 1 1 0 1 1 1
8
1 1 1 1 0 1 1 1
8
1 1 1 1 0 1 1 1
8
1 1 1 1 0 1 1 1
8
1 1 1 1 0 1 1 1
8
1 1 1 1 0 1 1 1
8
1 1 1 1 0 1 1 1
8
1 1 1 1 0 1 1 1
8
1 1 1 1 0 1 1 1
4
1 1 0 1
4
1 1 0 1
4
1 1 0 1
4
1 1 0 1
4
1 1 0 1
4
1 1 0 1
4
1 1 0 1
4
1 1 0 1
4
1 1 0 1
4
1 1 1 0
4
1 1 1 0
4
1 1 1 0
4
1 1 1 0
4
1 1 1 0
4
1 1 1 0
4
1 1 1 0
4
1 1 1 0
4
1 1 1 0
4
1 1 1 0
4
1 1 1 0
4
1 1 1 0
4
1 1 1 0
4
1 1 1 0
4
1 1 1 0
4
1 1 1 0
4
1 1 1 0
4
1 1 1 0
4
1 1 1 0
4
1 1 1 0
4
1 1 1 0
4
1 1 1 0
4
1 1 1 0
4
1 1 1 0
4
1 1 1 0
4
1 1 1 0
4
1 1 1 0
4
1 1 1 0
4
1 1 1 0
4
1 1 1 0
4
1 1 1 0
4
1 1 1 0
1024
1 1 1 1 1 1 1 1 1 1 1 1 1 1 1 1 1 1 1 1 1 1 1 1 1 1 1 1 1 1 1 1 1 1 1 1 1 1 1 1 1 1 1 1 1 1 1 1 1 1 1 1 1 1 1 1 1 1 1 1 1 1 1 1 1 1 1 1 1 1 1 1 1 1 1 1 1 1 1 1 1 1 1 1 1 1 1 1 1 1 1 1 1 1 1 1 1 1 1 1 1 1 1 1 1 1 1 1 1 1 1 1 1 1 1 1 1 1 1 1 1 1 1 1 1 1 1 1 1 1 1 1 1 1 1 1 1 1 1 1 1 1 1 1 1 1 1 1 1 1 1 1 1 1 1 1 1 1 1 1 1 1 1 1 1 1 1 1 1 1 1 1 1 1 1 1 1 1 1 1 1 1 1 1 1 1 1 1 1 1 1 1 1 1 1 1 1 1 1 1 1 1 1 1 1 1 1 1 1 1 1 1 1 1 1 1 1 1 1 1 1 1 1 1 1 1 1 1 1 1 1 1 1 1 1 1 1 1 1 1 1 1 1 1 1 1 1 1 1 1 1 1 1 1 1 1 1 1 1 1 1 1 1 1 1 1 1 1 1 1 1 1 1 1 1 1 1 1 1 1 1 1 1 1 1 1 1 1 1 1 1 1 1 1 1 1 1 1 1 1 1 1 1 1 1 1 1 1 1 1 1 1 1 1 1 1 1 1 1 1 1 1 1 1 1 1 1 1 1 1 1 1 1 1 1 1 1 1 1 1 1 1 1 1 1 1 1 1 1 1 1 1 1 1 1 1 1 1 1 1 1 1 1 1 1 1 1 1 1 1 1 1 1 1 1 1 1 1 1 1 1 1 1 1 1 1 1 1 1 1 1 1 1 1 1 1 1 1 1 1 1 1 1 1 1 1 1 1 1 1 1 1 1 1 1 1 1 1 1 1 1 1 1 1 1 1 1 1 1 1 1 1 1 1 1 1 1 1 1 1 1 1 1 1 1 1 1 1 1 1 1 1 1 1 1 1 1 1 1 1 1 1 1 1 1 1 1 1 1 1 1 1 1 1 1 1 1 1 1 1 1 1 1 1 1 1 1 1 1 1 1 1 1 1 1 1 1 1 1 1 1 1 1 1 1 1 1 1 1 1 1 1 1 1 1 1 1 1 1 1 1 1 1 1 1 1 1 1 1 1 1 1 1 1 1 1 1 1 1 1 1 1 1 1 1 1 1 1 1 1 1 1 1 1 1 1 1 1 1 1 1 1 1 1 1 1 1 1 1 1 1 1 1 1 1 1 1 1 1 1 1 1 1 1 1 1 1 1 1 1 1 1 1 1 1 1 1 1 1 1 1 1 1 1 1 1 1 1 1 1 1 1 1 1 1 1 1 1 1 1 1 1 1 1 1 1 1 1 1 1 1 1 1 1 1 1 1 1 1 1 1 1 1 1 1 1 1 1 1 1 1 1 1 1 1 1 1 1 1 1 1 1 1 1 1 1 1 1 1 1 1 1 1 1 1 1 1 1 1 1 1 1 1 1 1 1 1 1 1 1 1 1 1 1 1 1 1 1 1 1 1 1 1 1 1 1 1 1 1 1 1 1 1 1 1 1 1 1 1 1 1 1 1 1 1 1 1 1 1 1 1 1 1 1 1 1 1 1 1 1 1 1 1 1 1 1 1 1 1 1 1 1 1 1 1 1 1 1 1 1 1 1 1 1 1 1 1 1 1 1 1 1 1 1 1 1 1 1 1 1 1 1 1 1 1 1 1 1 1 1 1 1 1 1 1 1 1 1 1 1 1 1 1 1 1 1 1 1 1 1 1 1 1 1 1 1 1 1 1 1 1 1 1 1 1 1 1 1 1 1 1 1 1 1 1 1 1 1 1 1 1 1 1 1 1 1 1 1 1 1 1 1 1 1 1 1 1 1 1 1 1 1 1 1 1 1 1 1 1 1 1 1 1 1 1 1 1 1 1 1 1 1 1 1 1 1 1 1 1 1 1 1 1 1 1 1 1 1 1 1 1 1 1 1 1 1 1 1 1 1 1 1 1 1 1 1 1 1 1 1 1 1 1 1 1 1 1 1 1 1 1 1 1 1 1 1 1 1 1 1 1 1 1 1 1 1 1 1 1 1 1 1 1 1 1 1 1 1 1 1 1 1 1 1 1 1 1 1 1 1 1 1 1 1 1 1 1 1 1 1 1 1 1 1 1 1 1 1 1 1 1 1 1 1 1 1 1 1 1 1 1 1 1 1 1 1 1 1 1 1 1 1 1 1 1 1 1 1 1 1 1 1 0 1
8
1 1 1 1 1 1 1 0
8
1 1 1 1 0 1 1 1
8
1 1 1 1 1 1 1 0
8
1 1 1 1 0 1 1 1
8
1 1 1 1 1 1 1 0
8
1 1 1 1 0 1 1 1
8
1 1 1 1 1 1 1 0
8
1 1 1 1 0 1 1 1
8
1 1 1 1 1 1 1 0
8
1 1 1 1 0 1 1 1
8
1 1 1 1 1 1 1 0
8
1 1 1 1 0 1 1 1
8
1 1 1 1 1 1 1 0
8
1 1 1 1 0 1 1 1
8
1 1 1 1 1 1 1 0
8
1 1 1 1 0 1 1 1
4
1 1 1 0
4
1 1 1 0
4
1 1 1 0
4
1 1 1 0
8
1 1 1 1 1 1 1 0
8
1 1 1 1 0 1 1 1
4
1 1 1 0
4
1 1 1 0
4
1 1 1 0
4
1 1 1 0
4
1 1 1 0
4
1 1 1 0
4
1 1 1 0
4
1 1 1 0
4
1 1 1 0
4
1 1 1 0
4
1 1 1 0
4
1 1 1 0
4
1 1 1 0
4
1 1 1 0
4
1 1 1 0
4
1 1 1 0
4
1 1 1 0
4
1 1 1 0
4
0 1 1 1
4
0 1 1 1
4
0 1 1 1
4
0 1 1 1
4
0 1 1 1
8
0 1 1 1 1 1 1 1
4
0 1 1 1
4
0 1 1 1
4
0 1 1 1
8
0 1 1 1 1 1 1 1
4
0 1 1 1
4
0 1 1 1
4
0 1 1 1
4
0 1 1 1
8
0 1 1 1 1 1 1 1
4
0 1 1 1
4
0 1 1 1
4
0 1 1 1
8
0 1 1 1 1 1 1 1
4
0 1 1 1
4
0 1 1 1
4
0 1 1 1
4
0 1 1 1
8
0 1 1 1 1 1 1 1
4
0 1 1 1
4
0 1 1 1
4
0 1 1 1
8
0 1 1 1 1 1 1 1
4
0 1 1 1
4
0 1 1 1
4
0 1 1 1
4
0 1 1 1
8
0 1 1 1 1 1 1 1
4
0 1 1 1
4
0 1 1 1
4
0 1 1 1
8
0 1 1 1 1 1 1 1
4
0 1 1 1
4
0 1 1 1
4
0 1 1 1
4
0 1 1 1
8
0 1 1 1 1 1 1 1
4
0 1 1 1
4
0 1 1 1
4
0 1 1 1
8
0 1 1 1 1 1 1 1
4
0 1 1 1
4
0 1 1 1
4
0 1 1 1
4
0 1 1 1
8
0 1 1 1 1 1 1 1
4
0 1 1 1
4
0 1 1 1
4
0 1 1 1
8
0 1 1 1 1 1 1 1
4
0 1 1 1
4
0 1 1 1
4
0 1 1 1
4
0 1 1 1
8
0 1 1 1 1 1 1 1
4
0 1 1 1
4
0 1 1 1
4
0 1 1 1
8
0 1 1 1 1 1 1 1
4
0 1 1 1
4
0 1 1 1
4
0 1 1 1
4
0 1 1 1
8
0 1 1 1 1 1 1 1
4
0 1 1 1
4
0 1 1 1
4
0 1 1 1
8
0 1 1 1 1 1 1 1
4
0 1 1 1
4
0 1 1 1
4
0 1 1 1
4
0 1 1 1
8
0 1 1 1 1 1 1 1
4
0 1 1 1
8
0 1 1 1 1 1 1 1
4
0 1 1 1
4
0 1 1 1
4
0 1 1 1
4
0 1 1 1
4
0 1 1 1
4
0 1 1 1
4
0 1 1 1
4
0 1 1 1
4
0 1 1 1
4
0 1 1 1
4
0 1 1 1
4
0 1 1 1
4
0 1 1 1
4
0 1 1 1
4
0 1 1 1
4
0 1 1 1
4
0 1 1 1
4
0 1 1 1
4
0 1 1 1
4
0 1 1 1
4
0 1 1 1
4
0 1 1 1
4
0 1 1 1
4
0 1 1 1
4
0 1 1 1
4
0 1 1 1
4
0 1 1 1
4
0 1 1 1
4
0 1 1 1
4
0 1 1 1
4
0 1 1 1
4
0 1 1 1
4
0 1 1 1
4
0 1 1 1
4
0 1 1 1
4
0 1 1 1
4
0 1 1 1
4
0 1 1 1
4
0 1 1 1
4
0 1 1 1
4
0 1 1 1
4
0 1 1 1
4
0 1 1 1
4
0 1 1 1
4
0 1 1 1
4
0 1 1 1
4
0 1 1 1
4
0 1 1 1
4
0 1 1 1
4
0 1 1 1
4
0 1 1 1
4
0 1 1 1
4
0 1 1 1
4
0 1 1 1
4
0 1 1 1
4
0 1 1 1
4
0 1 1 1
4
0 1 1 1
4
0 1 1 1
4
0 1 1 1
4
0 1 1 1
4
0 1 1 1
4
0 1 1 1
4
0 1 1 1
4
0 1 1 1
4
0 1 1 1
4
0 1 1 1
4
0 1 1 1
4
0 1 1 1
4
0 1 1 1
4
0 1 1 1
4
0 1 1 1
4
0 1 1 1
4
0 1 1 1
4
0 1 1 1
4
0 1 1 1
4
0 1 1 1
4
0 1 1 1
4
0 1 1 1
4
0 1 1 1
4
0 1 1 1
4
0 1 1 1
4
0 1 1 1
4
0 1 1 1
4
0 1 1 1
4
0 1 1 1
4
0 1 1 1
4
0 1 1 1
4
0 1 1 1
4
0 1 1 1
4
0 1 1 1
4
0 1 1 1
4
0 1 1 1
4
0 1 1 1
4
0 1 1 1
4
0 1 1 1
4
0 1 1 1
4
0 1 1 1
4
0 1 1 1
4
0 1 1 1
4
0 1 1 1
4
0 1 1 1
4
0 1 1 1
4
0 1 1 1
4
0 1 1 1
4
0 1 1 1
4
0 1 1 1
4
0 1 1 1
4
0 1 1 1
4
0 1 1 1
4
0 1 1 1
4
0 1 1 1
4
0 1 1 1
4
0 1 1 1
4
0 1 1 1
4
0 1 1 1
4
0 1 1 1
4
0 1 1 1
4
0 1 1 1
4
0 1 1 1
4
0 1 1 1
4
0 1 1 1
4
0 1 1 1
4
0 1 1 1
4
0 1 1 1
4
0 1 1 1
4
0 1 1 1
4
0 1 1 1
4
0 1 1 1
4
0 1 1 1
4
0 1 1 1
4
0 1 1 1
4
0 1 1 1
4
0 1 1 1
4
0 1 1 1
4
0 1 1 1
4
0 1 1 1
4
0 1 1 1
4
0 1 1 1
4
0 1 1 1
4
0 1 1 1
4
0 1 1 1
4
0 1 1 1
4
0 1 1 1
4
0 1 1 1
4
0 1 1 1
4
0 1 1 1
4
0 1 1 1
4
0 1 1 1
4
0 1 1 1
4
0 1 1 1
4
0 1 1 1
4
0 1 1 1
4
0 1 1 1
4
0 1 1 1
8
0 1 1 1 1 1 1 1
4
0 1 1 1
4
0 1 1 1
4
0 1 1 1
4
0 1 1 1
4
0 1 1 1
4
0 1 1 1
4
0 1 1 1
4
0 1 1 1
4
0 1 1 1
4
0 1 1 1
